p cnf 114 403
-3 4 -5 0
3 -4 -5 0
-3 -4 5 0
3 4 5 0
-2 -5 -6 0
2 5 -6 0
-2 5 6 0
2 -5 6 0
-7 1 0
-7 -6 0
-1 6 7 0
-10 8 0
-10 9 0
-8 -9 10 0
11 -10 0
11 -4 0
10 4 -11 0
7 -11 -12 0
-7 11 -12 0
7 11 12 0
-7 -11 12 0
14 15 -16 0
-14 -15 -16 0
14 -15 16 0
-14 15 16 0
17 13 0
17 -16 0
-13 16 -17 0
18 10 0
18 14 0
-10 -14 -18 0
19 8 0
19 18 0
-8 -18 -19 0
20 -3 0
20 -19 0
3 19 -20 0
21 -14 -22 0
-21 14 -22 0
21 14 22 0
-21 -14 22 0
23 22 0
23 -5 0
-22 5 -23 0
-24 20 0
-24 23 0
-20 -23 24 0
-17 24 -25 0
17 -24 -25 0
-17 -24 25 0
17 24 25 0
-12 -25 -26 0
12 25 -26 0
-12 25 26 0
12 -25 26 0
27 23 0
27 14 0
-23 -14 -27 0
28 26 0
28 27 0
-26 -27 -28 0
29 4 0
29 -15 0
-4 15 -29 0
30 21 0
30 13 0
-21 -13 -30 0
31 -30 0
31 1 0
30 -1 -31 0
32 29 0
32 -31 0
-29 31 -32 0
5 33 -34 0
-5 -33 -34 0
5 -33 34 0
-5 33 34 0
-35 -32 0
-35 -34 0
32 34 35 0
-10 8 -36 0
10 -8 -36 0
-10 -8 36 0
10 8 36 0
37 36 0
37 15 0
-36 -15 -37 0
37 18 -38 0
-37 -18 -38 0
37 -18 38 0
-37 18 38 0
-39 6 0
-39 38 0
-6 -38 39 0
-40 -30 0
-40 -36 0
30 36 40 0
-41 -22 0
-41 -40 0
22 40 41 0
42 -39 0
42 -41 0
39 41 -42 0
43 35 0
43 -42 0
-35 42 -43 0
-44 8 0
-44 2 0
-8 -2 44 0
-45 -44 0
-45 -40 0
44 40 45 0
-46 18 0
-46 3 0
-18 -3 46 0
-45 -46 -47 0
45 46 -47 0
-45 46 47 0
45 -46 47 0
-48 11 0
-48 -11 0
-19 -48 -49 0
19 48 -49 0
-19 48 49 0
19 -48 49 0
50 48 0
50 14 0
-48 -14 -50 0
51 -49 0
51 -50 0
49 50 -51 0
-47 -51 -52 0
47 51 -52 0
-47 51 52 0
47 -51 52 0
43 52 -53 0
-43 -52 -53 0
43 -52 53 0
-43 52 53 0
55 5 0
55 -54 0
-5 54 -55 0
56 19 0
56 31 0
-19 -31 -56 0
55 56 -57 0
-55 -56 -57 0
55 -56 57 0
-55 56 57 0
14 57 -58 0
-14 -57 -58 0
14 -57 58 0
-14 57 58 0
59 -36 0
59 -58 0
36 58 -59 0
60 -8 0
60 59 0
8 -59 -60 0
36 15 -61 0
-36 -15 -61 0
36 -15 61 0
-36 15 61 0
62 20 0
62 61 0
-20 -61 -62 0
63 19 0
63 54 0
-19 -54 -63 0
64 2 0
64 21 0
-2 -21 -64 0
-65 63 0
-65 64 0
-63 -64 65 0
-62 -65 -66 0
62 65 -66 0
-62 65 66 0
62 -65 66 0
-67 -60 0
-67 -66 0
60 66 67 0
53 -67 -68 0
-53 67 -68 0
53 67 68 0
-53 -67 68 0
69 -28 0
69 -68 0
28 68 -69 0
-71 16 0
-71 -70 0
-16 70 71 0
72 8 0
72 -1 0
-8 1 -72 0
73 -72 0
73 19 0
72 -19 -73 0
74 -73 0
74 -5 0
73 5 -74 0
75 10 0
75 44 0
-10 -44 -75 0
76 8 0
76 -75 0
-8 75 -76 0
-1 -76 -77 0
1 76 -77 0
-1 76 77 0
1 -76 77 0
78 74 0
78 77 0
-74 -77 -78 0
80 79 0
80 -30 0
-79 30 -80 0
-78 80 -81 0
78 -80 -81 0
-78 -80 81 0
78 80 81 0
-82 71 0
-82 81 0
-71 -81 82 0
-83 -37 0
-83 44 0
37 -44 83 0
82 -83 -84 0
-82 83 -84 0
82 83 84 0
-82 -83 84 0
-85 23 0
-85 13 0
-23 -13 85 0
86 -13 0
86 1 0
13 -1 -86 0
87 85 0
87 -86 0
-85 86 -87 0
88 84 0
88 -87 0
-84 87 -88 0
-21 -55 -89 0
21 55 -89 0
-21 55 89 0
21 -55 89 0
-19 11 -90 0
19 -11 -90 0
-19 -11 90 0
19 11 90 0
-6 90 -91 0
6 -90 -91 0
-6 -90 91 0
6 90 91 0
-91 77 -92 0
91 -77 -92 0
-91 -77 92 0
91 77 92 0
-92 -64 -93 0
92 64 -93 0
-92 64 93 0
92 -64 93 0
89 93 -94 0
-89 -93 -94 0
89 -93 94 0
-89 93 94 0
-70 -74 -95 0
70 74 -95 0
-70 74 95 0
70 -74 95 0
-9 19 -96 0
9 -19 -96 0
-9 -19 96 0
9 19 96 0
-97 -95 0
-97 96 0
95 -96 97 0
98 94 0
98 97 0
-94 -97 -98 0
-99 -88 0
-99 -98 0
88 98 99 0
-100 37 0
-100 -57 0
-37 57 100 0
-20 -14 -101 0
20 14 -101 0
-20 14 101 0
20 -14 101 0
102 -101 0
102 56 0
101 -56 -102 0
103 -100 0
103 -102 0
100 102 -103 0
-48 -36 -104 0
48 36 -104 0
-48 36 104 0
48 -36 104 0
-105 -104 0
-105 -9 0
104 9 105 0
103 -105 -106 0
-103 105 -106 0
103 105 106 0
-103 -105 106 0
-107 1 0
-107 -11 0
-1 11 107 0
-108 40 0
-108 107 0
-40 -107 108 0
107 -23 -109 0
-107 23 -109 0
107 23 109 0
-107 -23 109 0
110 -6 0
110 -109 0
6 109 -110 0
108 -110 -111 0
-108 110 -111 0
108 110 111 0
-108 -110 111 0
112 106 0
112 -111 0
-106 111 -112 0
113 99 0
113 -112 0
-99 112 -113 0
-69 113 -114 0
69 -113 -114 0
-69 -113 114 0
69 113 114 0
109 -3 -50 0
-10 -20 0
-92 14 42 0
-19 87 54 -105 0
82 104 27 0
17 -3 0
-38 -94 59 20 0
41 78 38 66 0
85 -59 -71 0
57 -100 -88 36 74 0
-49 84 78 0
97 113 -45 -51 0
15 -69 -64 -79 -106 0
-60 -109 -61 0
58 26 -17 4 93 -40 0
-13 -41 -75 80 0
-21 77 85 105 37 2 0
-31 89 0
-100 -11 -89 -40 41 0
-83 -23 0
5 -63 -16 0
-18 43 0
-109 52 -56 63 -53 82 0
108 -47 0
78 47 -16 0
85 -76 -20 0
83 -6 112 74 0
-92 108 71 54 0
50 110 0
76 -43 3 0
49 50 80 61 59 0
75 -101 -112 0
-13 -45 0
-62 52 -102 0
37 -22 57 0
-2 4 -84 0
-62 92 -97 0
-37 12 63 79 -98 0
38 -23 -95 0
36 -3 0
-66 -109 18 0
51 -44 -53 -35 -54 0
-26 -49 -4 -64 61 -58 0
-49 13 0
102 -52 -49 105 77 112 0
76 -11 51 0
-98 107 -59 -32 8 0
-105 81 0
-113 -24 43 -81 73 62 0
14 -1 0
15 -59 0
97 -113 2 79 0
-85 20 46 109 0
-55 -20 -25 60 -102 -108 0
-58 -20 0
59 76 19 -88 -89 0
-107 -25 24 105 0
101 67 0
50 16 107 -81 0
4 -28 -105 0
58 78 -50 -69 0
76 88 -35 85 0
-31 -56 -18 -53 0
59 -19 -31 0
-83 65 55 0
31 -23 94 0
60 -94 0
114 0
